max: 20 x1 + 15 x2 + 25 x3 - 6 y1p + 6 y1m + 3 y2m;

20 x1 + 15 x2 + 25 x3 - 20 x1 - 15 x2 - 25 x3 + 6 y1p - 6 y1p - 3 y2m = 0;
6 x1 + 4 x2 + 5 x3 + y1m - y1p = 50;
8 x1 + 7 x2 + 5 x3 + y2m - y2p = 75;